NAME: ACTUAL_TOURS/amz2614
TYPE: TOUR
COMMENT: RouteID_4bafe43d-9b6c-4ee1-9e7f-775bdaf5e2dc
DIMENSION: 86
TOUR_SECTION
1
13
42
67
28
45
26
9
31
41
60
61
77
35
65
53
54
7
72
25
79
44
81
10
62
24
2
82
27
47
64
38
59
80
11
84
43
71
66
50
48
16
34
18
14
29
4
32
36
49
56
86
69
17
83
63
15
33
68
57
70
37
3
52
40
74
30
21
39
76
55
12
23
75
51
78
6
58
46
19
5
73
8
85
22
20
-1
EOF
